language ESSENCE' 1.0

letting n_classes be 18
letting n_options be 5
letting n_cars be 100
letting quantity_Function1D be [5, 3, 7, 1, 10, 2, 11, 5, 4, 6, 12, 1, 1, 5, 9, 5, 12, 1; int(1..18)]
letting usage_RelationAsSet_Explicit_1 be
        [1, 1, 1, 2, 2, 2, 3, 3, 3, 4, 4, 4, 5, 5, 6, 6, 7, 7, 8, 8, 9, 9, 10, 10, 11, 11, 12, 12, 13, 13, 14, 15, 16,
         17, 18;
             int(1..35)]
letting usage_RelationAsSet_Explicit_2 be
        [1, 2, 5, 1, 2, 4, 1, 2, 3, 2, 3, 4, 1, 2, 1, 5, 1, 4, 1, 3, 2, 5, 2, 4, 2, 3, 3, 5, 3, 4, 1, 2, 5, 4, 3;
             int(1..35)]
letting blksize_Function1D be [2, 3, 3, 5, 5; int(1..5)]
letting maxcars_Function1D be [1, 2, 1, 2, 1; int(1..5)]
letting fin1 be 18
letting fin2 be 12
letting fin3 be 5
letting fin4 be 2
letting fin5 be 5
letting fin6 be 5
letting fin7 be 35
